<?xml version = "1.0" encoding="UTF-8" standalone="yes"?>
<CPLEXSolution version="1.2">
 <header
   problemName="IloCplex"
   solutionName="p0"
   solutionIndex="-1"
   objectiveValue="-9063301120"
   solutionTypeValue="3"
   solutionTypeString="primal"
   solutionStatusValue="127"
   solutionStatusString="integer feasible solution"
   solutionMethodString="mip"
   primalFeasible="0"
   dualFeasible="0"
   writeLevel="3"/>
 <quality
   epInt="1.0000000000000001e-05"
   epRHS="9.9999999999999995e-07"
   maxIntInfeas="0"
   maxPrimalInfeas="0"
   maxX="1"
   maxSlack="1"/>
 <variables>
  <variable name="w16_13" index="285" value="1"/>
  <variable name="w16_14" index="286" value="1"/>
  <variable name="w16_15" index="287" value="1"/>
  <variable name="w17_13" index="302" value="1"/>
  <variable name="w17_14" index="303" value="1"/>
  <variable name="w17_15" index="304" value="1"/>
  <variable name="w18_13" index="319" value="1"/>
  <variable name="w18_14" index="320" value="1"/>
  <variable name="w18_15" index="321" value="1"/>
  <variable name="k16" index="356" value="1"/>
  <variable name="k17" index="357" value="1"/>
  <variable name="k18" index="358" value="1"/>
  <variable name="x0_71" index="431" value="1"/>
  <variable name="x1_33" index="493" value="1"/>
  <variable name="x2_46" index="606" value="1"/>
  <variable name="x3_21" index="681" value="1"/>
  <variable name="x4_72" index="832" value="1"/>
  <variable name="x5_10" index="870" value="1"/>
  <variable name="x6_35" index="995" value="1"/>
  <variable name="x7_90" index="1150" value="1"/>
  <variable name="x8_42" index="1202" value="1"/>
  <variable name="x9_85" index="1345" value="1"/>
  <variable name="x10_99" index="1459" value="1"/>
  <variable name="x11_95" index="1555" value="1"/>
  <variable name="x12_67" index="1627" value="1"/>
  <variable name="x13_70" index="1730" value="1"/>
  <variable name="x14_28" index="1788" value="1"/>
  <variable name="x15_92" index="1952" value="1"/>
  <variable name="x16_83" index="2043" value="1"/>
  <variable name="x17_26" index="2086" value="1"/>
  <variable name="x18_77" index="2237" value="1"/>
  <variable name="x19_94" index="2354" value="1"/>
  <variable name="x20_19" index="2379" value="1"/>
  <variable name="x21_58" index="2518" value="1"/>
  <variable name="x22_53" index="2613" value="1"/>
  <variable name="x23_15" index="2675" value="1"/>
  <variable name="x24_2" index="2762" value="1"/>
  <variable name="x25_54" index="2914" value="1"/>
  <variable name="x26_79" index="3039" value="1"/>
  <variable name="x27_76" index="3136" value="1"/>
  <variable name="x28_18" index="3178" value="1"/>
  <variable name="x29_9" index="3269" value="1"/>
  <variable name="x30_16" index="3376" value="1"/>
  <variable name="x31_45" index="3505" value="1"/>
  <variable name="x32_38" index="3598" value="1"/>
  <variable name="x33_65" index="3725" value="1"/>
  <variable name="x34_6" index="3766" value="1"/>
  <variable name="x35_59" index="3919" value="1"/>
  <variable name="x36_60" index="4020" value="1"/>
  <variable name="x37_30" index="4090" value="1"/>
  <variable name="x38_52" index="4212" value="1"/>
  <variable name="x39_97" index="4357" value="1"/>
  <variable name="x40_1" index="4361" value="1"/>
  <variable name="x41_41" index="4501" value="1"/>
  <variable name="x42_5" index="4565" value="1"/>
  <variable name="x43_64" index="4724" value="1"/>
  <variable name="x44_14" index="4774" value="1"/>
  <variable name="x45_78" index="4938" value="1"/>
  <variable name="x46_8" index="4968" value="1"/>
  <variable name="x47_93" index="5153" value="1"/>
  <variable name="x48_75" index="5235" value="1"/>
  <variable name="x49_80" index="5340" value="1"/>
  <variable name="x50_57" index="5417" value="1"/>
  <variable name="x51_84" index="5544" value="1"/>
  <variable name="x52_86" index="5646" value="1"/>
  <variable name="x53_50" index="5710" value="1"/>
  <variable name="x54_37" index="5797" value="1"/>
  <variable name="x55_31" index="5891" value="1"/>
  <variable name="x56_27" index="5987" value="1"/>
  <variable name="x57_22" index="6082" value="1"/>
  <variable name="x58_23" index="6183" value="1"/>
  <variable name="x59_96" index="6356" value="1"/>
  <variable name="x60_62" index="6422" value="1"/>
  <variable name="x61_25" index="6485" value="1"/>
  <variable name="x62_7" index="6567" value="1"/>
  <variable name="x63_74" index="6734" value="1"/>
  <variable name="x64_44" index="6804" value="1"/>
  <variable name="x65_61" index="6921" value="1"/>
  <variable name="x66_39" index="6999" value="1"/>
  <variable name="x67_20" index="7080" value="1"/>
  <variable name="x68_89" index="7249" value="1"/>
  <variable name="x69_29" index="7289" value="1"/>
  <variable name="x70_24" index="7384" value="1"/>
  <variable name="x71_13" index="7473" value="1"/>
  <variable name="x72_56" index="7616" value="1"/>
  <variable name="x73_17" index="7677" value="1"/>
  <variable name="x74_48" index="7808" value="1"/>
  <variable name="x75_36" index="7896" value="1"/>
  <variable name="x76_34" index="7994" value="1"/>
  <variable name="x77_40" index="8100" value="1"/>
  <variable name="x78_43" index="8203" value="1"/>
  <variable name="x79_88" index="8348" value="1"/>
  <variable name="x80_69" index="8429" value="1"/>
  <variable name="x81_49" index="8509" value="1"/>
  <variable name="x82_32" index="8592" value="1"/>
  <variable name="x83_63" index="8723" value="1"/>
  <variable name="x84_47" index="8807" value="1"/>
  <variable name="x85_82" index="8942" value="1"/>
  <variable name="x86_98" index="9058" value="1"/>
  <variable name="x87_87" index="9147" value="1"/>
  <variable name="x88_68" index="9228" value="1"/>
  <variable name="x89_55" index="9315" value="1"/>
  <variable name="x90_12" index="9372" value="1"/>
  <variable name="x91_91" index="9551" value="1"/>
  <variable name="x92_4" index="9564" value="1"/>
  <variable name="x93_73" index="9733" value="1"/>
  <variable name="x94_0" index="9760" value="1"/>
  <variable name="x95_51" index="9911" value="1"/>
  <variable name="x96_66" index="10026" value="1"/>
  <variable name="x97_11" index="10071" value="1"/>
  <variable name="x98_81" index="10241" value="1"/>
  <variable name="x99_3" index="10263" value="1"/>
  <variable name="u13" index="10373" value="1"/>
  <variable name="u14" index="10374" value="1"/>
  <variable name="u15" index="10375" value="1"/>
 </variables>
</CPLEXSolution>
